
Gurobi 11.0.3 (linux64) logging started Tue Apr 14 15:59:19 2026

Set parameter LogFile to value "tree/results/nwth/nwth_depth-4_run-3/Full MIP/LogFile_FullModel.txt"
Gurobi Optimizer version 11.0.3 build v11.0.3rc0 (linux64 - "CentOS Linux 7 (Core)")

CPU model: Intel(R) Xeon(R) Platinum 8260 CPU @ 2.40GHz, instruction set [SSE2|AVX|AVX2|AVX512]
Thread count: 96 physical cores, 192 logical processors, using up to 32 threads

Optimize a model with 33784 rows, 20870 columns and 229194 nonzeros
Model fingerprint: 0xc7399ec1
Model has 2576 general constraints
Variable types: 13094 continuous, 7776 integer (7776 binary)
Coefficient statistics:
  Matrix range     [4e-04, 1e+04]
  Objective range  [6e-03, 1e+04]
  Bounds range     [1e+00, 6e+02]
  RHS range        [1e-04, 1e+03]

User MIP start produced solution with objective -19999 (0.08s)
Loaded user MIP start with objective -19999

Presolve added 2560 rows and 10304 columns
Presolve time: 0.39s
Presolved: 36344 rows, 31174 columns, 249754 nonzeros
Presolved model has 10304 SOS constraint(s)
Variable types: 13094 continuous, 18080 integer (18080 binary)

Deterministic concurrent LP optimizer: primal and dual simplex (primal and dual model)
Showing primal log only...

Root relaxation presolved: 36328 rows, 31158 columns, 249754 nonzeros

Concurrent spin time: 0.15s (can be avoided by choosing Method=3)

Solved with primal simplex

Root relaxation: objective 1.000000e+00, 3420 iterations, 0.68 seconds (0.70 work units)

    Nodes    |    Current Node    |     Objective Bounds      |     Work
 Expl Unexpl |  Obj  Depth IntInf | Incumbent    BestBd   Gap | It/Node Time

     0     0    1.00000    0  296 -19999.012    1.00000   100%     -    4s
     0     2    1.00000    0  296 -19999.012    1.00000   100%     -    9s
     1     4    1.00000    1  797 -19999.012    1.00000   100%  1096   10s
    15    32    1.00000    4  795 -19999.012    1.00000   100%   393   16s
    31    64    1.00000    5  802 -19999.012    1.00000   100%   464   31s
H   39    64                       0.3229814    1.00000   210%   383   31s
    63    96    1.00000    6  801    0.32298    1.00000   210%   289   56s
    95   128    1.00000    7  807    0.32298    1.00000   210%   415   78s
H  119   128                       0.3229814    1.00000   210%   348   78s
H  125   128                       0.3229817    1.00000   210%   346   79s
   127   160    1.00000    8  785    0.32298    1.00000   210%   344   83s
   159   192    1.00000    9  779    0.32298    1.00000   210%   355  131s
   191   225    1.00000   10  752    0.32298    1.00000   210%   360  181s
H  205   225                       0.3291925    1.00000   204%   668  181s
   224   389    1.00000   11  366    0.32919    1.00000   204%  1070  298s
   388  1087    1.00000   14  751    0.32919    1.00000   204%   720  556s
H  628  1087                       0.3291927    1.00000   204%   648  556s
  1086  3523    1.00000   25  739    0.32919    1.00000   204%   714  738s
  3534  5848    1.00000   98  553    0.32919    1.00000   204%   715 1120s
  5925  8759    1.00000  230  654    0.32919    1.00000   204%   717 1318s
  9046  8800    1.00000  331  601    0.32919    1.00000   204%   696 1786s
  9089 11129    1.00000  331  572    0.32919    1.00000   204%   696 2254s
 11704 13257    1.00000  345  550    0.32919    1.00000   204%   708 2567s
 14157 15094    1.00000  351  466    0.32919    1.00000   204%   760 2870s
 16280 15095    1.00000  370    8    0.32919    1.00000   204%   810 2881s
 16282 15096    1.00000   17   24    0.32919    1.00000   204%   810 2888s
 16283 15097    1.00000   37   24    0.32919    1.00000   204%   810 2898s
 16284 15101    1.00000   10 1416    0.32919    1.00000   204%   811 2910s
 16346 15172    1.00000   15 1413    0.32919    1.00000   204%   808 2915s
H16379 14438                       0.3291934    1.00000   204%   806 2918s
 16410 14460    1.00000   16 1412    0.32919    1.00000   204%   805 2920s
 16442 14481    1.00000   16 1411    0.32919    1.00000   204%   803 2956s
 16474 14504    1.00000   17 1410    0.32919    1.00000   204%   802 3078s
 16508 14525    1.00000   18 1409    0.32919    1.00000   204%   800 3252s
 16540 14643    1.00000   18 1408    0.32919    1.00000   204%   799 3256s
 16669 14914    1.00000   22 1403    0.32919    1.00000   204%   794 3611s

Explored 16983 nodes (13390884 simplex iterations) in 3611.93 seconds (6117.97 work units)
Thread count was 32 (of 192 available processors)

Solution count 7: 0.329193 0.329193 0.329193 ... -19999

Time limit reached
Best objective 3.291934363477e-01, best bound 1.000000000000e+00, gap 203.7728%

User-callback calls 2112249, time in user-callback 13.85 sec
